<number of tasks>
29

<cycle time>
41

<task times>
1 7
2 19
3 15
4 5
5 12
6 10
7 8
8 16
9 2
10 6
11 21
12 10
13 9
14 4
15 14
16 7
17 14
18 17
19 10
20 16
21 1
22 9
23 25
24 14
25 14
26 2
27 10
28 7
29 20

<precedence relations>
1,3
1,25
2,6
2,26
3,4
4,5
5,8
5,13
6,8
7,9
7,12
7,25
8,11
8,16
9,10
10,14
10,15
11,17
12,15
13,17
14,16
15,19
16,18
17,20
18,22
19,21
20,23
21,22
22,23
23,24
23,28
24,29
25,29
26,27
27,29
28,29

<setup times forward>
1,2:3
1,6:4
1,7:3
1,9:3
1,10:4
1,12:3
1,14:2
1,15:4
1,19:2
1,21:5
1,26:3
1,27:4
2,1:3
2,3:3
2,4:3
2,5:1
2,6:1
2,10:1
2,13:1
2,14:1
2,15:1
2,19:1
2,21:2
2,25:3
3,2:3
3,6:4
3,7:3
3,9:3
3,10:4
3,12:3
3,14:2
3,15:4
3,19:2
3,21:5
3,26:3
3,27:4
4,2:3
4,5:2
4,6:4
4,7:3
4,9:3
4,10:4
4,12:3
4,14:2
4,15:4
4,19:2
4,21:5
4,26:3
4,27:4
5,2:1
5,6:2
5,7:1
5,9:1
5,10:2
5,12:1
5,15:2
5,21:3
5,25:2
5,26:1
5,27:2
6,1:4
6,3:4
6,4:4
6,5:2
6,7:1
6,8:2
6,9:1
6,12:1
6,13:2
6,14:2
6,19:2
6,21:1
6,25:4
6,26:1
7,1:3
7,3:3
7,4:3
7,5:1
7,6:1
7,8:1
7,11:1
7,13:1
7,17:2
7,25:3
7,27:1
8,7:1
8,9:1
8,10:2
8,12:1
8,15:2
8,21:3
8,25:2
8,26:1
8,27:2
9,1:3
9,3:3
9,4:3
9,5:1
9,6:1
9,8:1
9,10:1
9,11:1
9,13:1
9,17:2
9,25:3
9,27:1
10,1:4
10,2:1
10,3:4
10,4:4
10,5:2
10,8:2
10,11:2
10,12:1
10,13:2
10,14:2
10,17:1
10,20:1
10,25:4
10,26:1
11,7:1
11,9:1
11,10:2
11,12:1
11,15:2
11,17:3
11,18:3
11,21:3
11,22:3
11,25:2
11,26:1
11,27:2
12,1:3
12,3:3
12,4:3
12,5:1
12,6:1
12,8:1
12,10:1
12,11:1
12,13:1
12,14:1
12,15:1
12,16:1
12,17:2
12,18:2
12,25:3
12,27:1
13,2:1
13,6:2
13,7:1
13,9:1
13,10:2
13,12:1
13,15:2
13,17:3
13,18:3
13,21:3
13,22:3
13,25:2
13,26:1
13,27:2
14,1:2
14,2:1
14,3:2
14,4:2
14,6:2
14,12:1
14,15:2
14,17:3
14,20:1
14,21:3
14,25:2
14,26:1
14,27:2
15,1:4
15,2:1
15,3:4
15,4:4
15,5:2
15,8:2
15,11:2
15,13:2
15,14:2
15,16:2
15,17:1
15,18:1
15,19:2
15,20:1
15,25:4
15,26:1
16,12:1
16,15:2
16,17:3
16,18:3
16,20:1
16,21:3
16,25:2
16,26:1
16,27:2
17,7:2
17,9:2
17,10:1
17,12:2
17,14:3
17,15:1
17,16:3
17,19:3
17,20:2
17,25:5
17,26:2
17,27:1
18,11:3
18,12:2
18,13:3
18,15:1
18,19:3
18,20:2
18,25:5
18,26:2
18,27:1
19,1:2
19,2:1
19,3:2
19,4:2
19,6:2
19,17:3
19,18:3
19,20:1
19,21:3
19,25:2
19,26:1
19,27:2
20,10:1
20,14:1
20,15:1
20,16:1
20,18:2
20,19:1
20,21:2
20,22:2
20,25:3
20,27:1
21,1:5
21,2:2
21,3:5
21,4:5
21,5:3
21,6:1
21,8:3
21,11:3
21,13:3
21,14:3
21,16:3
21,20:2
21,25:5
21,26:2
21,27:1
22,11:3
22,13:3
22,20:2
22,23:2
22,25:5
22,26:2
22,27:1
23,24:3
23,25:3
23,27:1
23,28:3
24,25:6
24,26:3
24,27:2
25,2:3
25,5:2
25,6:4
25,8:2
25,9:3
25,10:4
25,11:2
25,12:3
25,13:2
25,14:2
25,15:4
25,16:2
25,17:5
25,18:5
25,19:2
25,20:3
25,21:5
25,22:5
25,23:3
25,24:6
25,26:3
25,27:4
25,28:6
25,29:6
26,1:3
26,3:3
26,4:3
26,5:1
26,6:1
26,8:1
26,10:1
26,11:1
26,13:1
26,14:1
26,15:1
26,16:1
26,17:2
26,18:2
26,19:1
26,21:2
26,22:2
26,24:3
26,25:3
26,27:1
26,28:3
27,1:4
27,3:4
27,4:4
27,5:2
27,7:1
27,8:2
27,9:1
27,11:2
27,12:1
27,13:2
27,14:2
27,16:2
27,17:1
27,18:1
27,19:2
27,20:1
27,21:1
27,22:1
27,23:1
27,24:2
27,25:4
27,28:2
27,29:2
28,25:6
28,26:3
28,27:2

<setup times backward>
1,2:3
1,6:4
1,7:3
1,9:3
1,10:4
1,12:3
1,14:2
1,15:4
1,19:2
1,21:5
1,26:3
1,27:4
2,10:1
2,15:1
2,21:2
3,2:3
3,6:4
3,7:3
3,9:3
3,10:4
3,12:3
3,14:2
3,15:4
3,19:2
3,21:5
3,26:3
3,27:4
4,2:3
4,6:4
4,7:3
4,9:3
4,10:4
4,12:3
4,14:2
4,15:4
4,19:2
4,21:5
4,26:3
4,27:4
5,2:1
5,6:2
5,7:1
5,9:1
5,10:2
5,12:1
5,15:2
5,21:3
5,26:1
5,27:2
6,21:1
7,6:1
7,17:2
7,27:1
8,2:1
8,6:2
8,7:1
8,9:1
8,10:2
8,12:1
8,15:2
8,21:3
8,26:1
8,27:2
9,6:1
9,17:2
9,27:1
10,17:1
11,2:1
11,6:2
11,7:1
11,9:1
11,10:2
11,12:1
11,15:2
11,18:3
11,21:3
11,22:3
11,26:1
11,27:2
12,6:1
12,10:1
12,17:2
12,18:2
12,27:1
13,2:1
13,6:2
13,7:1
13,9:1
13,10:2
13,12:1
13,15:2
13,18:3
13,21:3
13,22:3
13,26:1
13,27:2
14,2:1
14,6:2
14,7:1
14,9:1
14,10:2
14,12:1
14,15:2
14,17:3
14,20:1
14,21:3
14,26:1
14,27:2
15,17:1
15,18:1
16,2:1
16,6:2
16,7:1
16,9:1
16,10:2
16,12:1
16,15:2
16,17:3
16,20:1
16,21:3
16,26:1
16,27:2
19,2:1
19,6:2
19,7:1
19,9:1
19,10:2
19,12:1
19,15:2
19,17:3
19,18:3
19,20:1
19,26:1
19,27:2
20,6:1
20,10:1
20,15:1
20,17:2
20,18:2
20,21:2
20,22:2
20,27:1
23,6:1
23,10:1
23,15:1
23,17:2
23,18:2
23,21:2
23,22:2
23,27:1
25,2:3
25,5:2
25,6:4
25,7:3
25,8:2
25,9:3
25,10:4
25,11:2
25,12:3
25,13:2
25,14:2
25,15:4
25,16:2
25,17:5
25,18:5
25,19:2
25,20:3
25,21:5
25,22:5
25,23:3
25,24:6
25,26:3
25,27:4
25,28:6
26,6:1
26,10:1
26,15:1
26,17:2
26,18:2
26,21:2
26,22:2
26,24:3
26,28:3
27,17:1
27,18:1
27,21:1
27,22:1
27,24:2
27,28:2

<end>

<optimal SALBP-1 value>
8


<rand seed>
467321153

